n = 101;
k = 2750;
price = [18, 20, 25, 19, 21, 25, 19, 19, 24, 19, 22, 20, 15, 25, 15, 18, 25, 19, 18, 15, 21, 22, 25, 23, 19, 15, 16, 21, 19, 24, 17, 16, 15, 23, 25, 20, 22, 17, 18, 18, 17, 19, 15, 20, 23, 17, 24, 24, 19, 20, 25, 17, 24, 15, 20, 17, 25, 17, 24, 15, 22, 18, 23, 16, 21, 25, 25, 18, 25, 22, 25, 15, 19, 24, 18, 17, 23, 19, 18, 23, 22, 19, 16, 16, 19, 19, 16, 17, 21, 20, 18, 18, 17, 25, 16, 25, 19, 23, 16, 24, 19];
m = 0;
buy = [];
free = [];
